asp/input/in_40_20_8_3.lp
#const n = 40.
#const k = 20.
#const h = 8.
tile(1,17,2).
tile(2,5,7).
tile(3,20,13).
tile(4,3,7).
tile(5,11,7).
tile(6,14,19).
tile(7,19,1).
tile(8,2,7).
tile(9,11,8).
tile(10,2,13).
tile(11,14,4).
tile(12,17,20).
tile(13,1,20).
tile(14,10,10).
tile(15,17,17).
tile(16,11,6).
tile(17,9,3).
tile(18,18,20).
tile(19,15,1).
tile(20,9,5).
tile(21,11,4).
tile(22,3,12).
tile(23,16,9).
tile(24,8,15).
tile(25,18,19).
tile(26,19,11).
tile(27,4,12).
tile(28,16,4).
tile(29,17,17).
tile(30,16,5).
tile(31,17,19).
tile(32,6,3).
tile(33,3,16).
tile(34,3,7).
tile(35,16,8).
tile(36,2,11).
tile(37,10,1).
tile(38,18,16).
tile(39,1,8).
tile(40,16,12).
