instances/in_40_20_8_3.dzn
n = 40;
k = 20;
h = 8;
tiles = array2d(1..n, 1..2,
[ 17,2
, 5,7
, 20,13
, 3,7
, 11,7
, 14,19
, 19,1
, 2,7
, 11,8
, 2,13
, 14,4
, 17,20
, 1,20
, 10,10
, 17,17
, 11,6
, 9,3
, 18,20
, 15,1
, 9,5
, 11,4
, 3,12
, 16,9
, 8,15
, 18,19
, 19,11
, 4,12
, 16,4
, 17,17
, 16,5
, 17,19
, 6,3
, 3,16
, 3,7
, 16,8
, 2,11
, 10,1
, 18,16
, 1,8
, 16,12
]);